20 43
10 17 4
10 15 5
10 14 1
10 11 5
15 17 3
14 17 2
14 15 2
11 17 2
11 15 4
11 14 2
11 13 5
7 13 5
7 9 4
7 8 3
9 13 3
8 13 2
8 9 1
4 13 5
4 7 3
4 9 1
4 8 1
4 12 4
12 18 2
1 12 4
1 18 4
1 5 3
1 3 2
5 12 2
5 18 1
3 12 5
3 18 5
3 5 1
3 6 3
6 19 3
6 16 5
6 20 1
19 20 5
2 6 4
2 19 5
2 16 2
2 20 3
16 19 4
16 20 2
